111111111111111
100000000000001
101111111111101
100010000000001
111010111011111
101010101000101
101011101110101
101000001010101
101111111010101
101000000010101
101011111010101
100010100010001
101110101111101
100000100000001
111111111111111
